70
2 0 5
2 1 1
4 1 7
5 1 2
5 4 7
6 1 4
6 4 2
7 0 1
7 2 8
7 3 9
7 4 9
7 5 9
7 6 9
8 1 9
8 4 9
8 7 9
9 1 6
9 2 5
9 3 1
9 6 5
9 7 6
10 2 8
10 4 6
11 1 8
11 3 6
11 4 5
11 5 1
11 6 8
11 9 6
11 10 6
12 0 8
12 1 1
12 2 4
12 3 6
12 4 5
12 5 2
12 6 8
12 10 4
12 11 7
13 0 5
13 2 9
13 5 8
13 6 9
13 8 7
13 9 4
13 11 1
14 1 8
14 6 7
14 7 8
14 9 6
14 10 6
14 11 9
15 1 2
15 4 1
15 5 4
15 8 4
15 9 8
15 12 1
15 14 7
16 0 9
16 1 2
16 6 2
16 10 3
16 11 7
16 14 2
16 15 2
17 1 9
17 3 5
17 6 9
17 11 4
17 13 6
17 15 9
17 16 9
18 5 4
18 9 1
18 10 2
18 11 1
18 14 7
18 16 4
19 0 6
19 3 8
19 4 6
19 7 8
19 10 6
19 11 2
19 13 1
19 14 1
19 17 8
20 0 5
20 1 7
20 4 5
20 5 8
20 9 4
20 10 1
20 11 2
20 12 6
20 13 3
20 14 6
20 15 3
20 19 5
21 1 3
21 2 2
21 3 2
21 6 5
21 10 8
21 11 4
21 12 3
21 13 6
21 14 1
21 15 4
21 16 4
21 18 8
21 20 9
22 0 5
22 2 4
22 4 6
22 5 2
22 6 6
22 7 2
22 9 8
22 11 9
22 14 5
22 15 3
22 17 5
22 19 7
22 20 3
23 2 9
23 5 1
23 6 2
23 7 4
23 8 5
23 9 9
23 14 6
23 15 4
23 16 1
23 18 2
23 19 1
23 21 9
24 1 7
24 6 8
24 7 3
24 8 1
24 9 3
24 10 2
24 14 7
24 15 2
24 16 4
24 17 1
24 18 8
24 21 9
24 23 9
25 0 5
25 3 3
25 4 6
25 6 9
25 7 5
25 11 7
25 12 7
25 15 1
25 20 7
25 21 5
25 22 1
26 3 2
26 5 6
26 6 1
26 7 6
26 8 9
26 10 2
26 12 6
26 14 6
26 18 3
26 21 4
26 22 6
26 23 2
27 0 9
27 3 2
27 4 7
27 8 1
27 9 4
27 10 5
27 11 5
27 13 9
27 17 9
27 18 1
27 20 9
27 21 3
27 22 5
27 23 7
27 24 4
27 25 2
28 0 2
28 1 1
28 2 3
28 3 6
28 6 5
28 8 7
28 10 1
28 12 9
28 13 4
28 15 8
28 20 1
28 21 7
28 23 2
28 24 9
28 25 2
28 26 8
29 0 7
29 1 3
29 4 2
29 5 8
29 7 3
29 11 5
29 12 6
29 14 5
29 15 6
29 17 6
29 19 4
29 20 9
29 21 3
29 23 9
29 26 9
29 28 7
30 0 4
30 3 1
30 4 5
30 7 5
30 12 6
30 15 1
30 19 5
30 21 2
30 22 5
30 23 8
30 24 5
30 25 8
30 26 3
31 1 7
31 5 9
31 7 3
31 8 6
31 11 8
31 12 4
31 17 6
31 18 3
31 20 2
31 21 6
31 22 7
31 23 7
31 28 5
32 1 2
32 4 9
32 8 5
32 10 9
32 11 6
32 15 2
32 17 4
32 19 5
32 21 1
32 23 2
32 26 6
32 30 1
33 0 3
33 3 6
33 4 7
33 5 3
33 7 6
33 8 1
33 9 3
33 11 8
33 12 8
33 18 4
33 19 9
33 21 5
33 22 2
33 23 7
33 26 7
33 27 1
33 28 2
33 32 8
34 2 8
34 3 9
34 4 1
34 11 3
34 18 6
34 19 5
34 20 9
34 22 8
34 23 3
34 25 9
34 26 8
34 27 8
34 28 8
34 31 8
34 33 3
35 0 7
35 2 3
35 4 7
35 5 4
35 6 3
35 7 5
35 9 7
35 10 3
35 11 7
35 13 1
35 14 6
35 16 7
35 19 9
35 20 7
35 22 8
35 32 2
36 2 8
36 3 5
36 4 6
36 5 5
36 8 3
36 9 3
36 10 2
36 11 7
36 13 6
36 14 6
36 19 7
36 22 2
36 26 3
36 27 7
36 29 5
36 31 2
36 32 4
36 34 8
36 35 3
37 1 9
37 3 8
37 5 5
37 6 7
37 7 7
37 8 4
37 13 3
37 15 1
37 16 1
37 17 3
37 19 5
37 24 6
37 28 6
37 29 8
37 32 1
37 35 4
38 7 9
38 10 9
38 12 6
38 13 1
38 15 4
38 16 9
38 19 2
38 20 3
38 21 7
38 23 2
38 24 4
38 26 1
38 27 5
38 28 9
38 29 4
38 30 6
38 31 7
38 32 7
38 34 1
38 35 2
38 37 2
39 0 7
39 1 2
39 5 2
39 6 7
39 8 2
39 10 3
39 11 7
39 13 1
39 17 7
39 21 6
39 26 2
39 28 8
39 29 5
39 33 8
39 34 2
39 35 9
39 36 8
40 2 2
40 3 8
40 4 1
40 5 8
40 6 6
40 8 3
40 9 6
40 10 8
40 13 6
40 14 9
40 15 9
40 17 9
40 18 5
40 22 7
40 24 4
40 25 9
40 27 1
40 28 1
40 35 8
40 36 4
40 38 7
40 39 4
41 0 2
41 6 8
41 7 2
41 9 7
41 12 5
41 13 8
41 14 2
41 15 9
41 16 3
41 17 8
41 19 8
41 21 5
41 25 2
41 28 8
41 30 6
41 31 2
41 32 9
41 33 9
41 37 8
41 39 7
42 1 4
42 2 9
42 3 4
42 4 5
42 7 6
42 9 9
42 10 4
42 11 6
42 17 1
42 18 5
42 22 3
42 23 9
42 25 7
42 26 6
42 27 4
42 28 2
42 32 7
42 33 4
42 40 4
43 0 1
43 2 5
43 5 3
43 6 5
43 7 2
43 9 3
43 10 5
43 11 7
43 14 4
43 15 6
43 18 7
43 19 7
43 20 1
43 22 5
43 24 2
43 25 5
43 26 4
43 27 3
43 29 3
43 31 8
43 32 8
43 35 5
43 37 6
43 39 7
43 40 1
44 2 2
44 3 4
44 4 2
44 5 2
44 9 7
44 11 5
44 14 5
44 18 9
44 19 9
44 20 6
44 21 4
44 27 1
44 34 8
44 35 2
44 38 7
44 43 5
45 2 8
45 3 3
45 5 7
45 7 4
45 8 3
45 11 8
45 15 9
45 16 7
45 20 1
45 21 1
45 22 8
45 23 2
45 24 4
45 25 4
45 27 5
45 29 5
45 32 7
45 33 6
45 36 1
45 41 1
45 44 7
46 0 3
46 2 3
46 6 2
46 7 5
46 10 7
46 12 6
46 14 4
46 15 1
46 21 7
46 24 8
46 25 3
46 29 1
46 30 6
46 32 1
46 35 5
46 37 7
46 38 1
46 39 9
46 42 1
46 44 3
47 1 8
47 5 2
47 7 5
47 9 7
47 12 8
47 14 1
47 16 5
47 17 9
47 18 4
47 24 9
47 26 7
47 28 4
47 30 8
47 33 7
47 34 5
47 35 7
47 36 1
47 37 7
47 38 8
47 39 8
47 41 4
47 42 1
47 44 3
48 0 5
48 1 2
48 3 3
48 5 1
48 11 4
48 12 5
48 16 1
48 17 7
48 19 2
48 23 8
48 28 1
48 31 2
48 33 5
48 34 7
48 35 1
48 36 5
48 40 1
48 41 4
48 46 1
49 2 1
49 3 6
49 4 1
49 5 2
49 6 9
49 7 6
49 8 4
49 11 6
49 12 2
49 14 2
49 16 2
49 18 1
49 19 4
49 23 5
49 25 3
49 29 2
49 32 4
49 34 9
49 35 9
49 37 6
49 38 4
49 40 7
49 43 6
49 44 2
49 45 6
49 47 2
50 0 7
50 1 7
50 3 1
50 4 5
50 9 9
50 10 5
50 11 3
50 13 2
50 20 5
50 22 9
50 23 8
50 27 1
50 28 8
50 29 2
50 30 6
50 31 1
50 33 7
50 34 3
50 38 3
50 42 8
50 44 8
50 45 9
50 46 8
50 48 8
50 49 9
51 2 7
51 4 2
51 5 8
51 6 1
51 8 8
51 9 5
51 11 9
51 12 5
51 14 6
51 19 3
51 20 8
51 23 2
51 26 8
51 27 5
51 28 3
51 29 5
51 30 5
51 35 5
51 36 2
51 40 3
51 42 8
51 43 7
51 45 9
51 47 5
51 48 8
51 50 9
52 2 7
52 3 5
52 4 9
52 6 4
52 7 5
52 10 6
52 11 9
52 14 3
52 15 4
52 17 8
52 18 2
52 22 4
52 24 6
52 29 5
52 31 2
52 33 7
52 34 5
52 36 1
52 37 9
52 39 9
52 40 5
52 41 5
52 42 7
52 43 4
52 44 3
52 45 9
52 46 3
52 49 2
53 2 6
53 4 7
53 6 8
53 7 2
53 10 2
53 14 4
53 15 6
53 17 9
53 20 8
53 21 6
53 24 9
53 25 4
53 26 6
53 28 1
53 29 4
53 31 6
53 32 2
53 35 6
53 37 9
53 38 7
53 39 7
53 40 3
53 43 3
53 45 6
53 46 5
53 48 7
53 49 6
54 0 8
54 3 1
54 4 6
54 5 2
54 6 7
54 8 2
54 9 3
54 12 1
54 18 9
54 20 3
54 22 2
54 24 5
54 27 4
54 29 5
54 31 9
54 36 3
54 38 2
54 42 6
54 43 4
54 45 8
54 46 6
54 47 8
54 50 1
54 51 5
54 52 7
55 0 5
55 6 3
55 7 1
55 8 9
55 9 1
55 10 8
55 11 4
55 13 9
55 16 5
55 17 5
55 18 5
55 21 2
55 22 4
55 24 2
55 27 1
55 28 6
55 30 8
55 31 6
55 34 7
55 36 3
55 37 2
55 38 7
55 40 7
55 41 9
55 42 2
55 43 7
55 44 3
55 46 8
55 48 6
55 51 8
55 52 2
55 53 5
55 54 1
56 0 5
56 2 4
56 3 7
56 5 5
56 6 2
56 7 1
56 11 3
56 15 1
56 19 3
56 21 7
56 22 1
56 27 2
56 28 3
56 30 4
56 38 3
56 39 1
56 40 5
56 42 3
56 45 9
56 48 9
56 50 5
56 51 4
56 55 3
57 1 1
57 2 3
57 6 4
57 10 2
57 11 3
57 13 2
57 18 6
57 19 3
57 20 8
57 21 1
57 25 5
57 29 5
57 31 8
57 33 3
57 35 9
57 36 1
57 40 8
57 41 9
57 42 3
57 44 8
57 46 9
57 47 3
57 48 2
57 49 3
58 0 1
58 2 2
58 5 9
58 6 4
58 7 3
58 9 2
58 11 9
58 12 4
58 13 9
58 14 2
58 17 5
58 18 2
58 19 2
58 20 8
58 21 6
58 22 3
58 23 9
58 24 2
58 25 9
58 26 8
58 27 5
58 29 2
58 32 8
58 33 6
58 34 4
58 36 3
58 37 4
58 38 6
58 41 2
58 46 9
58 47 2
58 49 8
58 50 6
58 51 3
58 52 4
58 54 8
58 56 3
59 0 3
59 4 4
59 7 4
59 9 4
59 13 6
59 17 8
59 18 2
59 19 2
59 21 8
59 25 8
59 28 8
59 32 2
59 33 2
59 34 2
59 35 1
59 37 2
59 39 5
59 40 6
59 46 2
59 47 9
59 48 6
59 52 6
59 54 4
59 55 1
59 56 9
60 0 4
60 1 2
60 2 8
60 4 6
60 6 4
60 7 2
60 9 2
60 10 7
60 11 8
60 14 6
60 17 9
60 18 8
60 19 2
60 20 7
60 21 4
60 23 7
60 24 2
60 28 8
60 30 1
60 36 9
60 37 4
60 39 9
60 40 6
60 41 4
60 42 2
60 43 6
60 46 8
60 51 9
60 53 2
60 54 5
60 55 3
60 58 7
61 0 1
61 2 5
61 4 9
61 6 2
61 8 3
61 10 1
61 11 9
61 14 7
61 16 5
61 19 2
61 20 8
61 26 3
61 28 8
61 29 8
61 30 1
61 33 6
61 35 5
61 37 9
61 39 1
61 40 5
61 41 7
61 42 5
61 43 5
61 46 4
61 47 6
61 59 1
62 1 8
62 2 6
62 3 5
62 6 9
62 9 6
62 10 8
62 11 8
62 13 5
62 14 6
62 17 9
62 20 3
62 22 5
62 24 4
62 28 6
62 29 6
62 30 7
62 31 6
62 35 1
62 37 6
62 41 3
62 42 1
62 45 1
62 46 6
62 48 9
62 50 3
62 51 5
62 53 1
62 58 3
63 2 9
63 4 8
63 6 5
63 14 5
63 21 4
63 24 2
63 27 4
63 28 3
63 30 3
63 31 8
63 32 6
63 33 7
63 36 7
63 38 5
63 41 6
63 43 9
63 45 1
63 46 5
63 50 2
63 51 7
63 53 8
63 56 3
63 58 3
63 59 5
63 60 9
63 61 4
63 62 8
64 2 4
64 4 6
64 10 7
64 11 9
64 12 5
64 13 2
64 14 7
64 15 8
64 16 7
64 17 2
64 20 8
64 21 1
64 22 5
64 26 9
64 27 3
64 28 3
64 30 6
64 32 8
64 36 3
64 37 8
64 39 1
64 41 9
64 50 1
64 52 7
64 53 5
64 54 6
64 55 4
64 59 5
64 60 5
64 61 6
64 63 9
65 1 9
65 2 7
65 3 7
65 6 2
65 7 8
65 9 3
65 13 8
65 14 6
65 15 3
65 16 9
65 17 7
65 18 1
65 20 3
65 21 6
65 26 3
65 28 7
65 29 4
65 31 7
65 32 2
65 34 2
65 38 4
65 40 5
65 41 8
65 43 2
65 44 2
65 46 4
65 48 8
65 49 6
65 51 1
65 53 5
65 54 3
65 55 7
65 57 3
65 58 7
65 59 3
65 62 1
65 63 2
65 64 5
66 0 5
66 2 7
66 3 7
66 5 1
66 6 2
66 10 9
66 12 3
66 13 4
66 14 8
66 17 6
66 18 5
66 19 7
66 22 8
66 28 1
66 29 9
66 30 7
66 31 5
66 35 8
66 38 1
66 40 6
66 41 8
66 44 5
66 46 2
66 47 2
66 48 1
66 50 5
66 51 6
66 53 4
66 56 7
66 59 3
66 60 7
66 62 2
66 64 7
67 0 5
67 2 3
67 4 4
67 6 7
67 7 2
67 8 9
67 9 7
67 12 2
67 14 7
67 16 6
67 18 8
67 19 4
67 20 5
67 21 3
67 22 3
67 27 5
67 28 1
67 31 3
67 33 8
67 35 1
67 36 8
67 38 1
67 40 6
67 41 5
67 46 1
67 47 1
67 49 6
67 50 1
67 52 3
67 57 2
67 59 7
67 61 8
67 62 9
67 63 8
67 64 9
67 65 6
67 66 6
68 1 4
68 4 1
68 11 4
68 13 3
68 14 3
68 15 2
68 17 8
68 18 8
68 21 7
68 22 4
68 25 3
68 31 6
68 33 9
68 36 5
68 39 4
68 40 9
68 41 4
68 42 9
68 43 1
68 44 6
68 45 1
68 46 3
68 47 3
68 49 5
68 52 3
68 53 1
68 60 7
68 61 2
68 62 4
68 65 9
68 67 7
69 1 5
69 4 9
69 7 3
69 9 7
69 10 9
69 11 3
69 12 5
69 13 7
69 15 2
69 18 1
69 20 9
69 21 7
69 24 6
69 25 4
69 27 8
69 28 5
69 29 7
69 31 3
69 36 5
69 37 8
69 38 8
69 42 8
69 44 1
69 45 4
69 47 7
69 49 1
69 52 3
69 54 9
69 56 9
69 57 6
69 59 2
69 61 3
69 62 7
69 63 6
69 67 3
69 68 7
